39 500
11 163
6 126
5 166
9 154
5 174
9 170
5 169
10 168
6 20
10 169
8 126
10 115
2 110
11 163
8 176
7 170
10 180
6 154
10 170
7 168
7 185
6 174
6 166
5 180
5 169
8 170
11 132
8 176
2 110
8 134
5 155
6 101
5 115
3 185
6 101
10 155
2 134
3 132
11 169
